
 102   30
  10   10   10   10   10   10   10   10   10   10   10   10   10   10   10   10   10   10   10   10   10   10   10   10   10   10   10   10   10   10

   0   0   0   0   0   0   0   0   0   0   0   0   0   0   0   0   0   0   0   0   0   0   0   0   0   0   0   0   0   0   0  32 2 3 4 5 6 7 8 9 10 11 12 13 15 16 17 18 19 21 22 23 24 26 27 28 29 30 31 34 35 37 41 47 
   7   0   0   3   0   0   0   0   0   0   0   0   4   0   0   0   0   0   0   0   0   1   0   0   0   0   0   0   2   2   0  10 98 69 68 61 60 50 40 39 38 14 
   7   0   0   0   0   0   0   1   0   0   0   0   0   0   0   0   0   0   0   0   0   0   0   1   1   0   0   0   0   0   0  19 101 100 99 98 97 68 66 61 58 50 49 48 46 45 44 43 39 36 32 
   2   0   0   0   0   0   2   8   0   0   0   0   0   0   0   0   0   2   0   0   0   0   2   7   0   0   0   0   0   0   0  18 100 99 98 73 67 66 65 61 59 55 51 50 48 44 42 39 33 32 
   6   3   0   0   0   0   0   0   0   0   0   0   0   1   0   0   0   0   0   0   1   0   0   0   0   0   0   0   0   0   0  10 67 65 62 61 52 50 44 43 39 20 
   7   0   1   0   0   0   0   0   0   0   0   0   0   0   0   0   0   0   0   1   0   0   0   0   0   0   0   0   0   0   0  18 100 99 98 97 69 67 66 65 61 59 55 53 51 49 48 39 38 32 
   8   0   0   0   1   0   0   0   0   0   2   0   5   0   2   0   0   0   0   0  10   0   0   0   0   0   0   0   0   0   0   9 101 67 65 63 49 46 44 32 20 
   3   0   0   0   0   0   0   1   0   0   0   0   0   0   0   0   0   0   0  10   4   0   0   0   0   0   0   0   0   0   0  21 101 100 99 97 94 72 69 67 65 63 60 59 58 56 51 50 49 45 44 43 38 
   4   0   0   7   0   0   0   0   2   1   6   0   0   0   0   0   0   0   0   0   0   0   0   0   0   0   0   0   0   0   0  12 96 68 66 65 60 59 53 52 51 44 43 25 
   9   0   0   8   9   5   0   0   0   0   0   0   0   0   0   0   1   7   0   0  10   0   0   0   0   0   0   0   0   0   0  10 96 65 62 60 59 56 50 44 32 25 
   6   6   0   0   0   0   0   0   0   0   0   0   0   0   0   0   5   0   0   0   0   0   6   0   0   0   0   0   6   0   0   8 72 67 66 64 56 45 44 20 
   5   0   0   0   0   0   8   0   0   9   0   0   5   0   0   0   0   0   0   0   0   0   0   0   0   0   0   0   0   0   0  17 100 99 98 97 72 71 69 68 65 63 59 57 54 53 52 48 38 
  10   0   5   0   0   4   0   0   0   0   0   0   0   0   0   5   0   0   0   0   0   0   0   5   4   0   0   0   0   0   0  16 101 100 99 98 97 87 72 69 68 67 64 63 59 44 38 33 
   2   0   0   0   0   0   0   0   0   0   0   0   7   0   6   0   0   0   2   0   0   0   0   0   0   0   0   0   0   0   0  15 100 97 96 73 67 66 65 59 54 53 51 49 44 43 32 
   5   9   0   0   0   0   0   0   0   0   0   0   0   0   0   0   0   0   0   0   0   0   0   0   0   0   0   1   0   0   0  14 100 71 66 65 63 62 61 56 54 53 52 44 38 32 
   6   0   0   0   0   0   0   8   0   8   5   0   3   0   7   0   0   0   0   0   0   0   0   0   0   0   0   0   0   0   0  11 98 97 73 65 59 54 53 46 44 38 32 
   4   0   0   0   0   0   0   0   6   0   0   0   0   0   0   0   0   0   0   0  10   0   0   0   0   0   0   0   0   0   0  23 101 99 98 97 96 95 94 93 92 91 90 89 84 72 71 65 64 63 62 59 56 54 49 
  10   0  10   0   0   0   0   0   9   5   0   0   0   0   0   0   0   0   0   0   0   0   3   0   0   3   1   7   0   0   0  14 99 98 72 69 68 66 64 61 58 57 53 52 45 44 
   6   9   0   0   0   4   0   0   0   0   0   0   0   0   0   0   8   0   0   0   0   3  10   0   0   0   0   0   0   0   0  16 99 98 96 93 92 90 89 72 71 62 61 59 58 56 53 43 
   9   0   7   0   0   0   0   0   0   0   0   0   0   4   0   0   0   0   0   0   4   6   0   0   5   3   0   0   7   0   0  11 100 99 98 97 71 69 60 59 57 53 38 
   7   0   0   0   6   0   0   3   0   0   0   0   0   4   0   0   0   0   0   0  10   0   0   0   0   0   0   0   3   1   0  18 101 99 97 92 91 90 86 83 72 71 67 66 65 55 53 52 50 49 
   4   0   0   0   0   0   0   0   0   0   0   0   0   0   0   0   0   0   0   0   0   0   0   0   0   0   0   0   0   0   0  11 98 96 95 94 88 83 71 59 55 44 42 
   7   0   0   0   0   0   0   0   0   0   0   1   8   0   0   0   0   0   0   0   0   8  10   0   3   0   0   7   6   0   0  17 98 96 94 92 91 90 88 87 86 84 80 72 67 65 59 58 51 
  10   0   0   0   0   0   0   0   0   0   0   0   0   0   7   0   0   0   0   0   0   0   0   0   0   0   0   0   0   0   0  16 98 97 96 95 90 87 85 84 81 80 73 72 66 64 63 46 
   3   0   0   0   0   0   0   0   0   3   0   8   0   0   0   0   7   0   0   0   0   0   6   4   9   0   0   0   0   0   0  17 100 99 97 94 93 88 87 85 84 81 80 72 71 69 67 63 57 
   6   0   0   0   0   0   0   0   0   0   0   0   5   0   0   0   0   0   0   0   0   0   0   0   0   0   0   4   0   0   2  16 101 98 97 94 93 92 90 88 87 85 82 80 71 67 64 57 
   1   0   0   0   0   0   0   0   0   0   0   0   0   0   0   0   8   0   0   0   0   0   0   0   8   0   0   0   0   0   0  12 100 98 97 95 92 87 85 81 72 71 61 43 
   3   4   0   0   0   0   0   0   0   0   0   0   0   0   0   0   0   0   0   0   0   0   0   0   0   0   0   0   0   0   0  10 99 95 94 87 82 81 80 70 57 44 
   1   0   5   0   0   0   0   0   0   0   0   8   0   0   0   0   0   0   0   0   0   7   0   0   0   0   0   0   0   0   0  10 98 95 84 79 77 71 63 61 59 44 
   6   0   0   0   0   0   0   0   0   0   0   0   0   0   0   4   0   0   0   0   0   9   0   0   0   0   0   0   0   0   0   9 95 90 83 82 81 79 71 66 39 
   2   0   0   0   0   0   3   0   0   0   9   0   0   0   0   0   0   0   0   0   0   0   0   0   0   0   0   0   5   0   0  13 100 96 95 88 84 83 82 77 73 71 70 64 44 
   4   0   0   0   0   0   0   0   0   0   0   0   8   0   0   0   0   0   0   0   0   0   0   0   0   0   0   4   0   0   0  13 95 94 88 87 84 82 81 80 78 76 72 64 57 
  10   0   0   0   0   0   0   0   0   0   4   0   0   0   2   0   0   0   7   6   7   0   0   0   5   0   0   6   0   9   0  13 95 94 93 92 91 89 86 85 80 79 71 60 58 
   8   2   0   0   0  10   0   0   0   0   0   0   0   0   0   6   4   0   3   0   0   0   0   0   0   5   0   0   0   0   0  13 98 97 95 93 87 85 84 82 81 79 70 67 60 
   9   0   0   0   0   0   0   0   0   8   0   0   0   9   0   0   0   6   6   0   1   0   6   0   5   0   0   0   0   0   0  13 94 91 89 87 86 85 84 81 80 78 75 70 51 
   5   7   0   0   0   0  10   8   0   0   0   0   0   4   0   0   0   0   0   0   0   0   0  10   0   0   0   8   0   0   0  12 96 94 93 91 86 85 84 81 73 70 67 60 
  10   0   0   0   0   0   0   0   9   0   0   0   0   0   0   7   0  10   0   0   0   0   0   0   0   0   0   0   0   0   0  13 93 90 87 86 85 84 82 80 79 72 67 66 65 
   6   0   0   0   0   0   0   0   0   0   0   4   0   0   0   0   0   0   6   0   8   0   0   0   0   0   0   0   0   0   0  16 96 93 92 91 90 88 86 85 84 81 80 79 78 77 76 74 
   3   0   0   0   0   0   0   0   0   0   0   0   0   0   0   0   0   0   0   0   0   0   8   4   0   0   0   0   0   0   0  10 96 89 86 85 84 80 78 77 72 63 
   3   0   0   0   5   0   5   0   0   0   0   8   0   0   0   0   0   0   0   0   0   0   0   6   0   0   0   0   0   0   0   7 86 84 83 82 79 66 63 
   4   0   0   0   0   0   0   0   0   0   0   7   6   0   0   0   0   8   0   0   4   0   0   5   0   0   0   0   0   0   7  12 90 89 87 85 84 82 81 80 77 75 74 70 
   9   3   0   0   0   0   0   0   0   0   0   3   0   8   8   0   7   0   0   0   0   0   0   0   5   0   0   0   0   0   0  10 97 89 87 81 80 79 77 74 72 70 
   8   0   0   0   7   0   0   0   0   0   0   0   0   9   0   0   0   0   0   0   0   0   3   0   0   0   0   0   0   0   0   7 91 84 83 78 77 70 64 
   2   0   0   0   0   0   0   0   6   0   0   0   0   0   0   7   0   0   0   0   5   0   0   0   0   0   0   0   0   0   5   9 93 92 90 86 85 78 76 75 74 
   4   7   0   0   0   0   0   0   0   0   0  10   0   0   0   0   0   0   0   0   0   0   0   0   0   0   0   0   0   0   0   8 91 84 80 78 75 74 71 70 
  10   0   0   0   0   0   0   0   0   0   0   7   0   0   0   0   0   0   0   6   0   0   0   0   0   8   7   0   2   0   0   2 75 51 
   7   0   0   0   0   0   0   0   6   0   4   0   0   0   0   0   6   0   7   0   0   0   0   0   0   0   0   0   6   0   0   6 91 85 82 79 77 69 
   2   6   0   0   0   0   0   0   0   0   0   0   0   0   0   0   0   0   0   0   0   0   0   0   8   0   0   0   0   0   0   4 92 77 70 64 
   1   5   0   0   0   0   0   0   0   6  10   0   0   0   0   0   0   0   0   0   0   0   0   0   0   0   5   9   0   0   0   7 88 87 81 80 79 75 74 
   2   0   0   0   0   0   0   0   0   0   0   0   0   0   0   0   0   0   0   0   0   0   0   0   0   0   0   0   0   8   0   7 88 87 82 81 79 78 74 
  10   0   0   0   0   0   0   0   0   9   0   0   0   9  10   0   0   0   0   0   0   3   0   0   0   6   0   0   0   0   6   6 83 82 79 77 74 71 
   8   8   0   5   0   0   0   0   0   7   0   0   0   0   0   0   0   0   0   0   0   0   0   0   0   5   0   0   0   8   8   6 87 85 79 75 74 70 
   4   0   0   0   0   0   0   0   0   0   0   0   0   0   0   0   0   0   0   0   0   0   0   0   0  10   7   0  10   0   0   6 95 94 87 82 81 76 
   5   6   0   0   0   0   4   0   3   0   0   0   0   0   0   0   0   0   0   0   0   0   0   0   0   0   0   0   0   0   0   6 83 81 80 78 75 74 
   8  10   6   0   4   0   0   7   0   0   0   0   0   0   0   0   1   5   0   0   0   7   0   0  10   0   0   0   0   0   0   6 87 84 80 79 75 74 
   7   0   0  10   6   0   0   0   0   0   0   0   0   0   0   0   0   0   0   0   0   0   0   0   0   0   0   0   0   0   0   5 85 83 79 76 73 
  10   0   0   0   0   5   0   0   0   0   0   0   0  10   0   0   0   0   0   0   0   0   0   0   0   0   0   0   0   0   0   5 91 89 83 79 77 
   1   5   0   0   0   6   0   0   0   0   0   0   0   0   0   3   7   0   9   0  10   0   0   0   0   0   0   0   0   4   0   5 81 78 77 76 75 
   2   0   0   0   0   0   0   0   0   0   5   0   0   0   0   0   0   0   3   0   0   0   6   0   0   7   8   5   0   0   0   4 82 81 78 70 
   8   0   0   0   0   0   5   0   0   0   0   0   9   7   0   0   0   4   0   0   0   0   0   0   6   0   5   0   0  10   0   4 90 83 77 74 
   2   0   0   0   0   8   0   4   0   8   0   0   0   0   0   0   0   0   0   0   0   5   0   0   0   0   0   0   0   0   0   4 88 82 80 76 
   2   0   0   0   0   0   0   0   0   0   5   0   0   0   0   0   0   0   0   0   0   7   0   0   0   0   0   4   0   8   0   4 80 79 77 74 
   2   0   0   0   0   0   0  10  10   0   0   0   0   0   4   8   0   0   0   0   0   5   0   8   0   0   0   0   0   0   0   3 75 74 70 
   9   0   0   0   0   0   0   0   0   0   0   0   0   0   0   6   4   0   0   0   0   0   0   0   0   0   0   0   0   3   0   3 86 75 74 
   9   0   0   0   0   0   0   0   0   0   0   0   0   0   0   0   0   0   0   0   0   0   0   0   0   0   0   0   0   0   0   3 77 75 74 
   6   0   0   0   8   0  10   0   0   0   0   0   0   3   0   0   0   0   0   0   0   5   0   6   0   0   0   0   0   0   0   3 88 78 77 
   1   0   0   0   0   0   0   0   0   0   7   0   0   0   0   0   0   5   0   6   0   0   0   0   0   0   0   0   0   0   0   2 89 78 
   1   0   5   3   0   0   0   0   0   0   8   0   0   0   0   0   0   5   6   0   0   8   0   0   0   7   0   0   0   6   0   2 84 77 
   7   0   5   0   0   0   0   0   0   7   0   0   0   0   0   0   0   0   0   0   0   0   0   6   0   0   0   0   0   0   0   1 73 
   4   0   0   0   0   0   0   0   0   0   0   0   4   0   0   0   0   0  10   0   0   4   0   0   0   0   0   0   0   0   0   1 76 
   5   0   0   0   0   0   0   0   0   0   0   0   0   5   0   0   0   0   0   0   0   0   0   0   0   0   0   0   0   0  10   1 76 
   6   0   0   0   0   0   0   0   0   0   0   0   0   3   0   0   0   0   0   0   0   0   0   8   0   0   0   0   0   0   0   1 75 
   3   0   0   4   0   0   0   0   0   6   0   0   0   0   0   9   0   0   0   0   0   0   0   0   0   0   0   0   0   0   0   1 75 
   1   8   0   0   0   0   0   0   0   0   4   0   0   0   0   4   0   0   0   0   0   0   0   6   0   0   0   0   0   0   0   1 102
   5   0   0   0   8   0   0   0   0   0   0   0   0   0   0   0   0   0   6   0   0   0   0   0   0   0   0   9   0   0   0   1 102
   1   0   0   0   0   0   0   0   0   7   0   0   0   0   0   0   0   0   0   0   0   0   0   0   0   0   7   0   0   0   0   1 102
   5   0   9   0   0   0   0   0   0   0   0   0   0   0   0   0   0   0   5   0   0   7   0   0   0   0   0   0   0   4   0   1 102
   1   0   0   0   0   0   0   0   0   0   0   0   0   0   0   0   0   0   0   0   0   0   0   0   0   0   0   0   0   7   0   1 102
   5   0   6   0   0   0   0   0   0   0   0   0   0   0   0   0   0   0   0   0   0   0   8   0   0   0   0   0   0   0   7   1 102
   6   0   0   0   0   0   0   0   0   2   0   0   0   0   0   0   0   0   0   0   0   0   6   0   0   0   0   0   0   0   0   1 102
   7   0   0   0   0   0   0   0   0   0   0   0   0   0   0   0   0   5   6   0   4   0   0   0   0   0   0   0   8   0   0   1 102
  10   0   0   0   0   0   0   0   0   5   0   0  10   0   5   0   0   4   0   0   0   0   0   7   0   0   0   0   0   0   0   1 102
   7   0   0   0   0   6   0   5   0   0   0   0   0   8   0   4   7   0   0   0   0   0   0   0   0   0   0   0   0   5   6   1 102
   3   0   0   0   0   0   0   0   0   5   0   0   0   0   0   0   9   0   0   0   0   3   0   0   6   0   0   0   0   0   0   1 102
   2   0   0   0   0   0   0   0   0   0   5   0   0   0   0   0   0   0   0   0   0   0   0   3   0   0   0   0   0   0   0   1 102
   4   0   0   0   0   0   0   0   0   0   7   0   0   0   4   0  10   0   0   0   5   0   0   0   0   0   0   0   7   0   0   1 102
   6   0   0   0   0   0   0   0   0   0   0   0   0   0  10   0   0   0   0   0   0  10   0   0   9   0   0   0   0   0   0   1 102
   3   4   7   0   0   0   0   0   4   6   0   0   0   0   0   0   6   0   0   0   0   0   0   0   0   0   0   0   0   0   0   1 102
   6   0   6   0   0   0   0   0   0   0   0   6   0   0   6   0   0   0   0   0   0   0   6   0   0   0   0   0   0   0   0   1 102
  10   0   0   7   0   0   0   0   0  10   0   0   0   0   0   0   0   0   0  10   0   0   0   0   0   0   0   0   0   0   0   1 102
  10   0   0   0   0   0   0   0   5   0   0   0   0   0   0   0   0   0   9   0   0   0   0  10   0   0   0   0   0   0   3   1 102
   6   0   0   7   0   0   0   8   0   0   7   0   4   0   0   0   0   0   6   0   0   0   0   0   0   0   0   0   0   9   0   1 102
   2   0   0   0   0   0   0   0   0   2   6   0   0   0   0   8   0   0   0   0   0   0   0   0   0   0   0   0   0   0   0   1 102
   9   0   0   0   0   0   0   9   0   0   0   0   0   0   0   0   0   6   0   5   0   0   0   0   6   0   0   0   0   0   0   1 102
   2   0   0   0   0   0   0   0   0   0   0   0   0   0   7   5   0   0   5   4   0   0   0   0   0   0   0   0   0   0   0   1 102
  10   0   0   0   0   6   0   0   0   0   0   0   0   0   0   0   0   0   0   0   3   0   0   0   0   0   0   0   0   0   0   1 102
   9   0   0   0   0   0   0   0   0   0   0   0   0   0   0   3   0   0   0   6   0   0   0   0   0   0   0   0   0   0   0   1 102
   7   0   0   0   0   0   0   0   0   0   8   0   0   0   0   0   0   0   0   0   0   0   0   0   0   0   8   0   0   0   0   1 102
   6   0   0   0   0   0   0   0   0   0   0   5   0   0   0  10   0   7   0   0   0   7   4   0   0   0   0   8  10   0   0   1 102
   3   0   0   0   0   0   7   0   0   0   0   5   0   0   0   7   0  10   0   0   0   0   0   0   0   0   0   0   0   0   0   1 102
   4   0   0   0   0   0   0   0   0   0   0   0   0   0   0   0   0   0   0   0   0   9   0   0   0   0   0   0   0   6   0   1 102
   0   0   0   0   0   0   0   0   0   0   0   0   0   0   0   0   0   0   0   0   0   0   0   0   0   0   0   0   0   0   0   0 
